Route #1: 0 25 3 32 4 7 65 31 0
Route #2: 0 40 20 41 22 9 44 12 64 0
Route #3: 0 61 37 18 24 10 0
Route #4: 0 58 34 54 47 35 27 0
Route #5: 0 17 52 49 59 21 46 0
Route #6: 0 19 50 28 8 51 26 66 15 0
Route #7: 0 56 42 29 11 23 39 38 53 0
Route #8: 0 63 55 67 36 6 2 57 16 5 13 33 0
Route #9: 0 1 45 48 30 14 62 43 60 0
Cost 1991:
